language ESSENCE' 1.0
letting lastdx=112
letting cage be [
[15,10,2,0,0, 0,0, 0,0, 0,0],
[10,13,3,0,0, 0,0, 0,0, 0,0],
[45,8,13,7,13,7,14,6,14,0,0],
[3,3,4,0,0, 0,0, 0,0, 0,0],
[31,13,11,13,12,14,12,15,12,0,0],
[7,16,6,0,0, 0,0, 0,0, 0,0],
[12,14,3,0,0, 0,0, 0,0, 0,0],
[46,3,9,4,9,4,10,3,10,2,10],
[16,5,1,0,0, 0,0, 0,0, 0,0],
[11,5,15,0,0, 0,0, 0,0, 0,0],
[13,10,9,0,0, 0,0, 0,0, 0,0],
[10,7,4,0,0, 0,0, 0,0, 0,0],
[16,3,2,0,0, 0,0, 0,0, 0,0],
[15,16,7,0,0, 0,0, 0,0, 0,0],
[9,1,4,2,4,0,0, 0,0, 0,0],
[17,12,6,13,6,0,0, 0,0, 0,0],
[11,9,14,0,0, 0,0, 0,0, 0,0],
[37,5,12,4,12,4,11,0,0, 0,0],
[30,5,8,4,8,3,8,0,0, 0,0],
[8,14,7,0,0, 0,0, 0,0, 0,0],
[7,9,7,0,0, 0,0, 0,0, 0,0],
[14,7,2,0,0, 0,0, 0,0, 0,0],
[4,1,15,0,0, 0,0, 0,0, 0,0],
[11,5,9,6,9,0,0, 0,0, 0,0],
[34,2,5,1,5,1,6,0,0, 0,0],
[21,2,6,2,7,0,0, 0,0, 0,0],
[14,8,12,9,12,0,0, 0,0, 0,0],
[40,15,4,15,3,15,2,16,2,16,3],
[9,2,11,3,11,3,12,0,0, 0,0],
[53,2,12,1,12,1,11,1,10,1,9],
[32,16,13,16,12,16,11,15,11,15,10],
[17,2,16,1,16,0,0, 0,0, 0,0],
[19,8,3,7,3,6,3,6,4,0,0],
[19,10,13,9,13,0,0, 0,0, 0,0],
[5,13,13,0,0, 0,0, 0,0, 0,0],
[24,13,2,12,2,11,2,0,0, 0,0],
[5,5,6,0,0, 0,0, 0,0, 0,0],
[15,4,13,0,0, 0,0, 0,0, 0,0],
[37,3,5,4,5,5,5,5,4,5,3],
[14,9,4,0,0, 0,0, 0,0, 0,0],
[15,6,10,0,0, 0,0, 0,0, 0,0],
[24,14,15,13,15,0,0, 0,0, 0,0],
[28,10,14,11,14,12,14,0,0, 0,0],
[40,2,1,1,1,1,2,1,3,0,0],
[35,11,1,10,1,9,1,8,1,7,1],
[15,15,9,0,0, 0,0, 0,0, 0,0],
[19,9,15,10,15,11,15,0,0, 0,0],
[11,10,11,0,0, 0,0, 0,0, 0,0],
[47,10,6,10,5,11,5,11,4,11,3],
[52,4,15,4,16,5,16,6,16,6,15],
[5,6,12,0,0, 0,0, 0,0, 0,0],
[26,5,14,5,13,6,13,0,0, 0,0],
[18,4,1,3,1,0,0, 0,0, 0,0],
[42,6,8,6,7,7,7,8,7,0,0],
[9,11,16,0,0, 0,0, 0,0, 0,0],
[20,13,1,12,1,0,0, 0,0, 0,0],
[14,11,11,0,0, 0,0, 0,0, 0,0],
[30,13,9,13,8,0,0, 0,0, 0,0],
[10,14,6,0,0, 0,0, 0,0, 0,0],
[17,3,3,2,3,2,2,0,0, 0,0],
[24,14,16,15,16,0,0, 0,0, 0,0],
[20,16,9,16,10,0,0, 0,0, 0,0],
[2,8,16,0,0, 0,0, 0,0, 0,0],
[1,16,1,0,0, 0,0, 0,0, 0,0],
[7,5,10,5,11,0,0, 0,0, 0,0],
[7,14,9,0,0, 0,0, 0,0, 0,0],
[40,12,8,11,8,11,9,11,10,10,10],
[23,15,13,15,14,16,14,0,0, 0,0],
[13,9,8,8,8,7,8,0,0, 0,0],
[31,15,15,16,15,16,16,0,0, 0,0],
[26,8,6,7,6,6,6,6,5,0,0],
[29,4,14,3,14,3,13,2,13,0,0],
[5,15,7,0,0, 0,0, 0,0, 0,0],
[11,12,3,0,0, 0,0, 0,0, 0,0],
[8,9,3,0,0, 0,0, 0,0, 0,0],
[11,8,9,0,0, 0,0, 0,0, 0,0],
[16,9,6,0,0, 0,0, 0,0, 0,0],
[9,16,4,0,0, 0,0, 0,0, 0,0],
[21,15,1,14,1,14,2,0,0, 0,0],
[10,1,7,1,8,0,0, 0,0, 0,0],
[17,1,13,1,14,0,0, 0,0, 0,0],
[19,2,8,2,9,0,0, 0,0, 0,0],
[23,2,14,2,15,0,0, 0,0, 0,0],
[13,3,6,0,0, 0,0, 0,0, 0,0],
[1,3,7,0,0, 0,0, 0,0, 0,0],
[14,3,15,3,16,0,0, 0,0, 0,0],
[13,4,2,0,0, 0,0, 0,0, 0,0],
[20,4,3,4,4,0,0, 0,0, 0,0],
[25,4,6,4,7,5,7,0,0, 0,0],
[15,5,2,6,2,6,1,0,0, 0,0],
[16,6,11,0,0, 0,0, 0,0, 0,0],
[35,7,5,8,5,8,4,9,5,0,0],
[43,7,9,7,10,8,10,8,11,9,11],
[16,7,11,7,12,0,0, 0,0, 0,0],
[8,7,15,7,16,0,0, 0,0, 0,0],
[21,8,2,9,2,0,0, 0,0, 0,0],
[9,8,14,8,15,0,0, 0,0, 0,0],
[16,9,9,9,10,0,0, 0,0, 0,0],
[16,9,16,10,16,0,0, 0,0, 0,0],
[15,10,3,10,4,0,0, 0,0, 0,0],
[16,10,7,10,8,0,0, 0,0, 0,0],
[7,10,12,0,0, 0,0, 0,0, 0,0],
[29,11,6,11,7,12,7,13,7,0,0],
[20,11,12,12,12,0,0, 0,0, 0,0],
[17,11,13,12,13,0,0, 0,0, 0,0],
[35,12,4,13,4,14,4,14,5,0,0],
[10,12,5,13,5,0,0, 0,0, 0,0],
[22,12,9,12,10,12,11,0,0, 0,0],
[23,12,15,12,16,13,16,0,0, 0,0],
[19,13,10,14,10,14,11,0,0, 0,0],
[21,13,14,14,14,14,13,0,0, 0,0],
[20,14,8,15,8,16,8,0,0, 0,0],
[35,15,5,15,6,16,5,0,0, 0,0]
]
